Resources = {R1, R2, R3, R4, R5, R6, R7, R8, R9, R10, R11, R12, R13, R14, R15, R16};

Activities = {T, S, W, o, b};

slots = 48;

fixed =
[| R1: None, A(o), A(o), A(o), A(o), A(o), <>, <>, <>, A(b), <>, <>, <>, <>, <>, <>, <>, A(b), A(b), A(o), A(o), A(o), A(o), A(o), A(o), A(b), A(o), A(o), A(o), A(o), A(o), A(o), A(o), A(o), A(o), A(o), A(o), A(o), A(o), A(o), A(o), A(o), <>, <>, None, None, None, None
| R2: None, None, None, None, None, None, None, None, <>, <>, <>, <>, <>, <>, <>, <>, A(b), <>, <>, <>, <>, <>, <>, <>, A(b), A(b), A(b), <>, <>, <>, <>, <>, <>, <>, <>, <>, <>, <>, <>, <>, <>, <>, <>, <>, <>, <>, <>, None
| R3: None, None, None, None, None, None, None, None, None, None, None, None, None, None, None, None, None, None, None, None, None, <>, <>, <>, <>, <>, <>, <>, <>, <>, <>, <>, <>, A(b), A(b), A(b), <>, <>, <>, <>, <>, <>, <>, <>, None, None, None, None
| R4: None, None, None, <>, <>, A(o), <>, <>, <>, <>, <>, <>, <>, <>, <>, A(b), A(b), A(b), <>, <>, <>, <>, <>, <>, <>, <>, None, None, None, None, None, None, None, None, None, None, None, None, None, None, None, None, None, None, None, None, None, None
| R5: None, None, None, None, A(o), A(o), <>, <>, <>, <>, <>, <>, A(b), <>, <>, <>, <>, <>, <>, <>, A(b), A(b), A(b), A(b), A(o), A(o), A(o), A(o), A(o), A(o), A(o), A(o), A(o), A(o), A(o), A(o), A(o), A(o), A(o), A(o), A(o), None, None, None, None, None, None, None
| R6: None, None, None, None, None, None, None, None, None, None, None, None, <>, <>, <>, <>, <>, <>, <>, <>, <>, <>, <>, <>, A(b), A(b), A(b), A(o), A(o), A(o), A(o), A(o), None, None, None, None, None, None, None, None, None, None, None, None, None, None, None, None
| R7: None, A(o), A(o), A(o), A(o), A(o), <>, <>, <>, A(b), A(o), A(o), A(o), A(o), A(o), A(o), A(o), A(b), A(b), A(b), A(b), <>, <>, <>, <>, A(b), <>, <>, <>, <>, <>, <>, <>, <>, <>, <>, <>, <>, <>, <>, <>, <>, <>, <>, None, None, None, None
| R8: None, None, None, None, None, None, None, None, None, A(o), A(o), A(o), A(o), A(o), A(o), A(o), A(o), A(o), A(o), A(o), A(o), A(b), A(b), A(b), A(b), <>, <>, <>, <>, <>, None, None, None, None, None, None, None, None, None, None, None, None, None, None, None, None, None, None
| R9: None, None, None, None, None, None, None, None, None, None, None, None, None, None, A(o), A(o), A(o), A(o), A(o), A(o), <>, <>, A(b), A(o), A(o), A(o), <>, <>, <>, <>, A(b), A(b), A(b), A(b), <>, <>, <>, <>, <>, <>, <>, <>, <>, <>, <>, <>, <>, <>
| R10: None, None, None, None, None, A(o), <>, <>, <>, <>, <>, <>, <>, A(b), <>, <>, <>, <>, <>, <>, <>, A(b), A(b), <>, <>, <>, <>, <>, <>, A(b), <>, <>, <>, <>, <>, <>, <>, <>, <>, <>, <>, <>, <>, <>, <>, <>, <>, None
| R11: None, None, None, None, None, A(o), <>, <>, <>, <>, <>, <>, <>, A(b), A(o), A(o), A(o), A(o), A(o), A(o), A(o), A(b), A(b), <>, <>, <>, <>, <>, <>, A(b), <>, <>, <>, <>, <>, <>, <>, <>, <>, <>, <>, <>, <>, <>, <>, <>, <>, <>
| R12: None, None, None, <>, <>, A(o), <>, <>, <>, <>, <>, A(b), <>, <>, <>, <>, <>, <>, <>, A(b), A(b), A(o), A(o), <>, <>, <>, <>, A(b), <>, <>, <>, <>, <>, <>, <>, <>, <>, <>, <>, <>, <>, <>, <>, <>, <>, <>, <>, None
| R13: None, None, None, None, None, None, None, None, None, None, A(o), <>, <>, <>, <>, <>, <>, <>, <>, <>, <>, <>, A(b), A(b), A(b), A(b), <>, <>, <>, <>, <>, <>, <>, None, None, None, None, None, None, None, None, None, None, None, None, None, None, None
| R14: None, None, A(o), A(o), A(o), A(o), <>, <>, <>, <>, A(b), A(o), A(o), A(o), A(o), A(o), A(o), <>, A(b), A(b), A(b), <>, <>, <>, <>, <>, <>, <>, <>, <>, <>, <>, <>, <>, <>, <>, <>, <>, <>, <>, <>, None, None, None, None, None, None, None
| R15: None, None, None, None, None, A(o), <>, <>, <>, <>, <>, <>, <>, A(b), <>, <>, <>, <>, <>, <>, <>, A(b), A(b), <>, <>, <>, <>, <>, <>, A(b), <>, <>, <>, <>, <>, <>, <>, <>, <>, <>, <>, <>, <>, <>, <>, <>, None, None
| R16: None, None, None, None, None, None, None, None, None, None, None, None, None, None, None, None, None, None, None, None, None, None, None, None, None, None, <>, <>, <>, <>, <>, <>, <>, <>, <>, <>, <>, <>, A(b), A(b), <>, <>, <>, <>, <>, <>, <>, <>
|];

requirements =
[| T: 0, 0, 0, 0, 0, 0, 4, 4, 5, 3, 4, 4, 4, 5, 5, 4, 3, 3, 4, 4, 3, 5, 5, 5, 3, 2, 2, 3, 3, 3, 3, 3, 3, 2, 2, 2, 3, 3, 3, 3, 3, 3, 4, 3, 1, 1, 0, 0
| S: 0, 0, 0, 0, 0, 0, 2, 2, 2, 2, 2, 2, 2, 1, 1, 1, 1, 1, 1, 1, 2, 1, 1, 2, 2, 3, 4, 4, 4, 2, 2, 2, 2, 2, 3, 3, 3, 3, 3, 3, 3, 3, 3, 4, 3, 2, 0, 0
| W: 0, 0, 0, 2, 2, 0, 3, 3, 3, 3, 2, 2, 3, 1, 3, 3, 3, 4, 3, 2, 2, 2, 0, 3, 3, 3, 5, 4, 5, 4, 5, 5, 5, 4, 4, 4, 4, 4, 3, 3, 4, 3, 3, 3, 3, 4, 6, 3
| o: 0, 2, 3, 3, 4, 9, 0, 0, 0, 1, 3, 3, 3, 3, 5, 5, 5, 3, 3, 4, 3, 2, 2, 2, 3, 2, 2, 3, 3, 3, 3, 3, 2, 2, 2, 2, 2, 2, 2, 2, 2, 1, 0, 0, 0, 0, 0, 0
| b: 0, 0, 0, 0, 0, 0, 0, 0, 0, 2, 1, 1, 1, 3, 0, 1, 2, 3, 3, 3, 4, 5, 7, 3, 4, 5, 2, 1, 0, 3, 1, 1, 1, 2, 1, 1, 0, 0, 1, 1, 0, 0, 0, 0, 0, 0, 0, 0
|];

activity_run_cost = array2d(Activities, SlotsAndZero,
[| T: 0, 200, 100, 2, 0, 0, 0, 100, 200, 300, 400, 500, 600, 700, 800, 900, 1000, 1100, 1200, 1300, 1400, 1500, 1600, 1700, 1800, 1800, 1800, 1800, 1800, 1800, 1800, 1800, 1800, 1800, 1800, 1800, 1800, 1800, 1800, 1800, 1800, 1800, 1800, 1800, 1800, 1800, 1800, 1800, 1800
| S: 0, 2, 0, 0, 0, 0, 0, 0, 0, 3, 6, 9, 12, 15, 18, 21, 24, 27, 30, 33, 36, 39, 42, 45, 48, 48, 48, 48, 48, 48, 48, 48, 48, 48, 48, 48, 48, 48, 48, 48, 48, 48, 48, 48, 48, 48, 48, 48, 48
| W: 0, 15, 10, 5, 0, 0, 0, 0, 0, 0, 0, 0, 0, 0, 0, 0, 0, 0, 0, 0, 0, 0, 0, 0, 0, 0, 0, 0, 0, 0, 0, 0, 0, 0, 0, 0, 0, 0, 0, 0, 0, 0, 0, 0, 0, 0, 0, 0, 0
| o: 0, 0, 0, 0, 0, 0, 0, 0, 0, 0, 0, 0, 0, 0, 0, 0, 0, 0, 0, 0, 0, 0, 0, 0, 0, 0, 0, 0, 0, 0, 0, 0, 0, 0, 0, 0, 0, 0, 0, 0, 0, 0, 0, 0, 0, 0, 0, 0, 0
| b: 0, 0, 0, 0, 0, 0, 0, 0, 0, 0, 0, 0, 0, 0, 0, 0, 0, 0, 0, 0, 0, 0, 0, 0, 0, 0, 0, 0, 0, 0, 0, 0, 0, 0, 0, 0, 0, 0, 0, 0, 0, 0, 0, 0, 0, 0, 0, 0, 0
|]);

activity_frequency_cost = array2d(Activities, SlotsAndZero,
[| T: 0, 46, 0, 0, 0, 6, 8, 10, 12, 14, 16, 18, 20, 22, 24, 26, 28, 30, 32, 34, 36, 38, 40, 42, 44, 44, 44, 44, 44, 44, 44, 44, 44, 44, 44, 44, 44, 44, 44, 44, 44, 44, 44, 44, 44, 44, 44, 44, 44
| S: 0, 0, 0, 0, 0, 0, 0, 0, 0, 0, 0, 0, 0, 0, 0, 0, 0, 0, 0, 0, 0, 0, 0, 0, 0, 0, 0, 0, 0, 0, 0, 0, 0, 0, 0, 0, 0, 0, 0, 0, 0, 0, 0, 0, 0, 0, 0, 0, 0
| W: 0, 4, 8, 12, 16, 20, 24, 28, 32, 36, 40, 44, 48, 52, 56, 60, 64, 68, 72, 76, 80, 84, 88, 92, 92, 92, 92, 92, 92, 92, 92, 92, 92, 92, 92, 92, 92, 92, 92, 92, 92, 92, 92, 92, 92, 92, 92, 92, 92
| o: 0, 0, 0, 0, 0, 0, 0, 0, 0, 0, 0, 0, 0, 0, 0, 0, 0, 0, 0, 0, 0, 0, 0, 0, 0, 0, 0, 0, 0, 0, 0, 0, 0, 0, 0, 0, 0, 0, 0, 0, 0, 0, 0, 0, 0, 0, 0, 0, 0
| b: 0, 0, 0, 0, 0, 0, 0, 0, 0, 0, 0, 0, 0, 0, 0, 0, 0, 0, 0, 0, 0, 0, 0, 0, 0, 0, 0, 0, 0, 0, 0, 0, 0, 0, 0, 0, 0, 0, 0, 0, 0, 0, 0, 0, 0, 0, 0, 0, 0
|]);

